20	5
0	7	1	2	3	5	6	4	7
1	3	18	15	14
2	1	13
3	1	15
4	2	17	8
5	2	18	10
6	2	14	13
7	3	9	19	18
8	2	18	12
9	1	20
10	2	13	14
11	1	20
12	2	16	20
13	1	11
14	1	17
15	1	9
16	2	21	19
17	1	12
18	1	13
19	1	21
20	1	21
21	0
0	0	0	0	0	0	0
1	4	2	0	0	0	2
2	5	1	1	0	0	5
3	4	1	1	2	1	0
4	2	0	1	0	0	0
5	9	0	4	4	0	2
6	2	0	0	0	0	2
7	4	0	0	5	1	0
8	1	5	3	0	5	0
9	3	5	4	0	3	5
10	8	5	0	5	0	4
11	2	3	4	4	1	2
12	1	0	0	0	0	3
13	2	0	0	0	5	1
14	3	0	4	0	2	0
15	1	0	4	0	2	0
16	4	0	4	0	4	0
17	6	0	0	2	0	4
18	7	0	3	0	0	0
19	1	0	4	5	3	4
20	10	3	0	1	1	0
21	0	0	0	0	0	0
5	5	5	5	5
